17 4 16 0 17 0 19 1 17 1 16 1 14 1 13 5 14 1 15 1 16 1  
19 4 18 0 19 0 21 1 19 1 17 1 16 1 14 4 16 0 19 1 18 1 
9 5 10 5 9 2 14 0 13 0 12 0 11 0 10 0 9 0 9 1 8 1 
8 1 25 1 7 1 25 1 6 1 25 1 5 1 25 1 4 1 9 1 12 1 16 1 
4 1 4 1 4 1 4 1 4 1 3 1 9 1 9 1 9 5 8 0 9 0 11 0 9 0 8 3 
10 0 9 0 8 0 25 0 11 0 9 0 8 0 25 0 11 0 9 0 8 0 25 0 11 0 14 0 8 0 25 0 
11 0 9 0 12 0 25 0 11 0 9 0 12 0 25 0 11 0 9 0 12 0 16 0 9 0 
12 0 11 0 14 0 25 0 12 0 11 0 14 0 23 0 12 0 11 0 14 0 17 0 11 0 
12 4 11 0 12 0 14 1 12 1 11 1 9 1 8 5 9 1 10 1 11 1
17 4 16 0 17 0 19 1 17 1 16 1 14 1 13 5 14 0 15 1 16 1 
17 1 18 1 19 1 25 1 21 1 24 1 23 1 25 1
17 4 16 0 17 0 19 1 17 1 16 1 14 1 13 5 14 1 15 1 16 1  
19 4 18 0 19 0 21 1 19 1 17 1 16 1 14 4 16 0 19 1 18 1 
9 5 10 5 9 2 14 0 13 0 12 0 11 0 10 0 9 0 9 1 8 1 
8 1 25 1 7 1 25 1 6 1 25 1 5 1 25 1 4 1 9 1 12 1 16 1 
4 1 4 1 4 1 4 1 4 1 3 1 9 1 9 1 9 5 8 0 9 0 11 0 9 0 8 3 
10 0 9 0 8 0 25 0 11 0 9 0 8 0 25 0 11 0 9 0 8 0 25 0 11 0 14 0 8 0 25 0 
11 0 9 0 12 0 25 0 11 0 9 0 12 0 25 0 11 0 9 0 12 0 16 0 9 0 
12 0 11 0 14 0 25 0 12 0 11 0 14 0 23 0 12 0 11 0 14 0 17 0 11 0 
12 4 11 0 12 0 14 1 12 1 11 1 9 1 8 5 9 1 10 1 11 1
17 4 16 0 17 0 19 1 17 1 16 1 14 1 13 5 14 0 15 1 16 1 
17 1 18 1 19 1 25 1 21 1 24 1 23 1 25 1